
Gurobi 8.1.0 (linux64, Python) logging started Thu Mar  5 06:52:21 2020

Academic license - for non-commercial use only
Warning: Gurobi version mismatch between Python 8.1.1 and C library 8.1.0

Gurobi 8.1.0 (linux64, Python) logging started Thu Mar  5 06:52:35 2020

Academic license - for non-commercial use only
Warning: Gurobi version mismatch between Python 8.1.1 and C library 8.1.0

Gurobi 8.1.0 (linux64, Python) logging started Thu Mar  5 06:53:06 2020

Academic license - for non-commercial use only
Warning: Gurobi version mismatch between Python 8.1.1 and C library 8.1.0

Gurobi 8.1.0 (linux64, Python) logging started Thu Mar  5 06:54:39 2020

Academic license - for non-commercial use only
Warning: Gurobi version mismatch between Python 8.1.1 and C library 8.1.0

Gurobi 8.1.0 (linux64, Python) logging started Thu Mar  5 06:55:43 2020

Academic license - for non-commercial use only
Warning: Gurobi version mismatch between Python 8.1.1 and C library 8.1.0

Gurobi 8.1.0 (linux64, Python) logging started Thu Mar  5 06:57:36 2020

Academic license - for non-commercial use only
Warning: Gurobi version mismatch between Python 8.1.1 and C library 8.1.0

Gurobi 8.1.0 (linux64, Python) logging started Thu Mar  5 06:58:34 2020

Academic license - for non-commercial use only
Warning: Gurobi version mismatch between Python 8.1.1 and C library 8.1.0

Gurobi 8.1.0 (linux64, Python) logging started Thu Mar  5 07:08:15 2020

Academic license - for non-commercial use only
Warning: Gurobi version mismatch between Python 8.1.1 and C library 8.1.0

Gurobi 8.1.0 (linux64, Python) logging started Thu Mar  5 07:14:30 2020

Academic license - for non-commercial use only
Warning: Gurobi version mismatch between Python 8.1.1 and C library 8.1.0

Gurobi 8.1.0 (linux64, Python) logging started Thu Mar  5 07:14:58 2020

Academic license - for non-commercial use only
Warning: Gurobi version mismatch between Python 8.1.1 and C library 8.1.0

Gurobi 8.1.0 (linux64, Python) logging started Thu Mar  5 11:15:51 2020

Academic license - for non-commercial use only
Warning: Gurobi version mismatch between Python 8.1.1 and C library 8.1.0

Gurobi 8.1.0 (linux64, Python) logging started Thu Mar  5 11:16:50 2020

Academic license - for non-commercial use only
Warning: Gurobi version mismatch between Python 8.1.1 and C library 8.1.0

Gurobi 8.1.0 (linux64, Python) logging started Thu Mar  5 17:16:01 2020

Academic license - for non-commercial use only
Warning: Gurobi version mismatch between Python 8.1.1 and C library 8.1.0

Gurobi 8.1.1 (linux64, Python) logging started Fri Mar 27 01:13:45 2020

Academic license - for non-commercial use only

Gurobi 8.1.1 (linux64, Python) logging started Fri Mar 27 01:50:20 2020

Academic license - for non-commercial use only

Gurobi 8.1.1 (linux64, Python) logging started Fri Mar 27 12:05:39 2020

Academic license - for non-commercial use only

Gurobi 8.1.1 (linux64, Python) logging started Sat Mar 28 04:33:45 2020

Academic license - for non-commercial use only

Gurobi 8.1.1 (linux64, Python) logging started Sat Mar 28 13:20:53 2020

Academic license - for non-commercial use only

Gurobi 8.1.1 (linux64, Python) logging started Wed Apr  1 03:57:18 2020

Academic license - for non-commercial use only

Gurobi 8.1.1 (linux64, Python) logging started Wed Apr  1 04:05:23 2020

Academic license - for non-commercial use only
